RLW01
Position Depot: Center
Horizon for Depot: Large
Position of customers: Random
Distribution of the demand: Small
Width of time windows: Wide
Distribution of the service: Large

VEHICLE 
NUMBER 	 CAPACITY 
 12 	 	 60 
 
CUSTOMER
CUST NO. 	 XCOORD.  	 YCOORD. 	 DEMAND 	 READY TIME 	 DUE DATE 	 SERVICE TIME 
 0 	 	 500 	 	 500 	 	 0 	 	 0 	 	 3544 	 	 0 
  1 	 	 120 	 	 507 	 	 8 	 	 1737 	 	 2131 	 	 200 
  2 	 	 214 	 	 96 	 	 8 	 	 145 	 	 544 	 	 155 
  3 	 	 622 	 	 780 	 	 5 	 	 2636 	 	 3064 	 	 134 
  4 	 	 738 	 	 821 	 	 6 	 	 2295 	 	 2547 	 	 140 
  5 	 	 31 	 	 22 	 	 5 	 	 2421 	 	 2898 	 	 101 
  6 	 	 961 	 	 902 	 	 8 	 	 2656 	 	 2966 	 	 154 
  7 	 	 743 	 	 29 	 	 9 	 	 696 	 	 1120 	 	 163 
  8 	 	 566 	 	 238 	 	 7 	 	 789 	 	 1101 	 	 197 
  9 	 	 470 	 	 975 	 	 7 	 	 110 	 	 523 	 	 171 
  10 	 	 944 	 	 657 	 	 5 	 	 585 	 	 936 	 	 115 
  11 	 	 760 	 	 340 	 	 10 	 	 2685 	 	 3141 	 	 154 
  12 	 	 519 	 	 849 	 	 10 	 	 599 	 	 954 	 	 136 
  13 	 	 601 	 	 996 	 	 8 	 	 3086 	 	 3544 	 	 150 
  14 	 	 603 	 	 873 	 	 5 	 	 1805 	 	 2129 	 	 195 
  15 	 	 816 	 	 413 	 	 8 	 	 2578 	 	 2866 	 	 146 
  16 	 	 561 	 	 903 	 	 10 	 	 2981 	 	 3372 	 	 111 
  17 	 	 449 	 	 679 	 	 9 	 	 300 	 	 583 	 	 166 
  18 	 	 860 	 	 402 	 	 7 	 	 1897 	 	 2112 	 	 160 
  19 	 	 44 	 	 315 	 	 10 	 	 3048 	 	 3544 	 	 150 
  20 	 	 662 	 	 174 	 	 6 	 	 1899 	 	 2215 	 	 101 
  21 	 	 789 	 	 204 	 	 9 	 	 3064 	 	 3544 	 	 129 
  22 	 	 414 	 	 526 	 	 7 	 	 3049 	 	 3544 	 	 145 
  23 	 	 470 	 	 931 	 	 7 	 	 2460 	 	 2940 	 	 177 
  24 	 	 980 	 	 746 	 	 5 	 	 1340 	 	 1802 	 	 116 
  25 	 	 531 	 	 796 	 	 9 	 	 632 	 	 1050 	 	 107 
  26 	 	 492 	 	 890 	 	 7 	 	 2092 	 	 2575 	 	 125 
  27 	 	 963 	 	 516 	 	 8 	 	 1795 	 	 2177 	 	 153 
  28 	 	 354 	 	 1 	 	 9 	 	 2027 	 	 2396 	 	 158 
  29 	 	 614 	 	 28 	 	 6 	 	 2457 	 	 2747 	 	 170 
  30 	 	 598 	 	 185 	 	 5 	 	 3029 	 	 3511 	 	 132 
  31 	 	 33 	 	 861 	 	 10 	 	 407 	 	 649 	 	 102 
  32 	 	 463 	 	 14 	 	 7 	 	 853 	 	 1190 	 	 114 
  33 	 	 816 	 	 639 	 	 6 	 	 1236 	 	 1584 	 	 108 
  34 	 	 171 	 	 163 	 	 7 	 	 2017 	 	 2303 	 	 184 
  35 	 	 279 	 	 663 	 	 10 	 	 990 	 	 1422 	 	 189 
  36 	 	 329 	 	 508 	 	 8 	 	 361 	 	 573 	 	 139 
  37 	 	 395 	 	 351 	 	 8 	 	 3113 	 	 3409 	 	 133 
  38 	 	 111 	 	 259 	 	 10 	 	 1935 	 	 2242 	 	 177 
  39 	 	 442 	 	 836 	 	 5 	 	 818 	 	 1027 	 	 150 
  40 	 	 149 	 	 36 	 	 10 	 	 442 	 	 870 	 	 190 
  41 	 	 518 	 	 694 	 	 8 	 	 2075 	 	 2387 	 	 180 
  42 	 	 816 	 	 711 	 	 9 	 	 1689 	 	 2003 	 	 167 
  43 	 	 664 	 	 31 	 	 8 	 	 2517 	 	 3011 	 	 141 
  44 	 	 675 	 	 646 	 	 8 	 	 64 	 	 416 	 	 116 
  45 	 	 991 	 	 217 	 	 5 	 	 1136 	 	 1372 	 	 109 
  46 	 	 317 	 	 939 	 	 7 	 	 2905 	 	 3186 	 	 153 
  47 	 	 578 	 	 258 	 	 6 	 	 -208 	 	 279 	 	 104 
  48 	 	 604 	 	 839 	 	 6 	 	 2117 	 	 2552 	 	 121 
  49 	 	 847 	 	 888 	 	 10 	 	 2321 	 	 2781 	 	 104 
  50 	 	 387 	 	 205 	 	 7 	 	 252 	 	 557 	 	 173 
  51 	 	 690 	 	 918 	 	 8 	 	 2272 	 	 2571 	 	 163 
  52 	 	 106 	 	 960 	 	 10 	 	 1421 	 	 1772 	 	 164 
  53 	 	 511 	 	 17 	 	 7 	 	 2304 	 	 2709 	 	 136 
  54 	 	 18 	 	 160 	 	 6 	 	 3177 	 	 3544 	 	 172 
  55 	 	 801 	 	 138 	 	 7 	 	 1603 	 	 1912 	 	 134 
  56 	 	 690 	 	 98 	 	 8 	 	 2055 	 	 2431 	 	 187 
  57 	 	 547 	 	 496 	 	 9 	 	 844 	 	 1077 	 	 192 
  58 	 	 41 	 	 86 	 	 6 	 	 552 	 	 837 	 	 168 
  59 	 	 218 	 	 274 	 	 7 	 	 2228 	 	 2687 	 	 132 
  60 	 	 376 	 	 346 	 	 7 	 	 291 	 	 640 	 	 130 
  61 	 	 888 	 	 966 	 	 9 	 	 2967 	 	 3417 	 	 117 
  62 	 	 593 	 	 564 	 	 5 	 	 1203 	 	 1423 	 	 152 
  63 	 	 74 	 	 389 	 	 6 	 	 3261 	 	 3525 	 	 143 
  64 	 	 117 	 	 629 	 	 9 	 	 3005 	 	 3398 	 	 109 
  65 	 	 584 	 	 563 	 	 6 	 	 2197 	 	 2438 	 	 134 
  66 	 	 373 	 	 912 	 	 7 	 	 2074 	 	 2547 	 	 114 
  67 	 	 468 	 	 918 	 	 7 	 	 329 	 	 552 	 	 137 
  68 	 	 12 	 	 628 	 	 10 	 	 308 	 	 554 	 	 152 
  69 	 	 117 	 	 845 	 	 5 	 	 608 	 	 930 	 	 200 
  70 	 	 600 	 	 431 	 	 6 	 	 258 	 	 688 	 	 121 
  71 	 	 697 	 	 247 	 	 6 	 	 2921 	 	 3173 	 	 155 
  72 	 	 932 	 	 987 	 	 8 	 	 3064 	 	 3541 	 	 137 
  73 	 	 563 	 	 259 	 	 10 	 	 1772 	 	 2133 	 	 112 
  74 	 	 212 	 	 667 	 	 7 	 	 153 	 	 366 	 	 101 
  75 	 	 805 	 	 947 	 	 7 	 	 2793 	 	 3156 	 	 157 
  76 	 	 400 	 	 320 	 	 8 	 	 141 	 	 373 	 	 140 
  77 	 	 993 	 	 615 	 	 8 	 	 292 	 	 620 	 	 127 
  78 	 	 803 	 	 632 	 	 9 	 	 2598 	 	 3038 	 	 184 
  79 	 	 364 	 	 265 	 	 6 	 	 2065 	 	 2371 	 	 139 
  80 	 	 203 	 	 252 	 	 7 	 	 161 	 	 504 	 	 111 
  81 	 	 771 	 	 458 	 	 5 	 	 2423 	 	 2917 	 	 182 
  82 	 	 347 	 	 963 	 	 6 	 	 1420 	 	 1777 	 	 105 
  83 	 	 335 	 	 191 	 	 7 	 	 2999 	 	 3495 	 	 138 
  84 	 	 251 	 	 342 	 	 5 	 	 1981 	 	 2477 	 	 176 
  85 	 	 94 	 	 250 	 	 6 	 	 200 	 	 524 	 	 151 
  86 	 	 74 	 	 274 	 	 9 	 	 292 	 	 530 	 	 102 
  87 	 	 650 	 	 10 	 	 7 	 	 2882 	 	 3265 	 	 163 
  88 	 	 480 	 	 883 	 	 6 	 	 185 	 	 641 	 	 199 
  89 	 	 814 	 	 335 	 	 5 	 	 1941 	 	 2229 	 	 122 
  90 	 	 794 	 	 153 	 	 6 	 	 3181 	 	 3544 	 	 139 
  91 	 	 109 	 	 726 	 	 9 	 	 3194 	 	 3544 	 	 116 
  92 	 	 915 	 	 211 	 	 6 	 	 2126 	 	 2342 	 	 199 
  93 	 	 323 	 	 840 	 	 9 	 	 3050 	 	 3533 	 	 195 
  94 	 	 706 	 	 210 	 	 6 	 	 1013 	 	 1434 	 	 168 
  95 	 	 161 	 	 49 	 	 10 	 	 3218 	 	 3544 	 	 132 
  96 	 	 796 	 	 65 	 	 10 	 	 1619 	 	 2039 	 	 170 
  97 	 	 256 	 	 554 	 	 8 	 	 3069 	 	 3544 	 	 158 
  98 	 	 11 	 	 405 	 	 7 	 	 536 	 	 868 	 	 162 
  99 	 	 24 	 	 812 	 	 10 	 	 1460 	 	 1952 	 	 102 
  100 	 	 63 	 	 708 	 	 7 	 	 2240 	 	 2510 	 	 175 
 